DIMACS_lns/graph-1000-815.col
p edge 1000 1856
e 1 607
e 1 828
e 1 144
e 1 461
e 2 513
e 2 144
e 2 79
e 2 780
e 2 233
e 2 45
e 2 492
e 3 668
e 3 253
e 3 750
e 3 854
e 4 817
e 4 864
e 4 297
e 5 852
e 5 767
e 5 165
e 9 643
e 9 424
e 9 486
e 9 91
e 9 370
e 9 104
e 9 198
e 9 586
e 9 354
e 11 801
e 11 514
e 11 13
e 11 294
e 11 951
e 12 913
e 12 671
e 12 617
e 12 514
e 13 401
e 13 439
e 13 272
e 13 144
e 14 782
e 14 868
e 14 482
e 14 92
e 14 423
e 14 229
e 14 334
e 15 84
e 15 55
e 15 171
e 15 299
e 15 123
e 15 599
e 16 193
e 16 831
e 16 264
e 16 499
e 16 931
e 16 81
e 16 783
e 16 656
e 17 815
e 17 377
e 17 217
e 18 630
e 18 833
e 18 306
e 18 838
e 21 374
e 21 410
e 21 462
e 21 128
e 21 575
e 21 524
e 21 849
e 21 790
e 21 433
e 21 1000
e 22 806
e 22 824
e 22 82
e 22 728
e 23 713
e 23 741
e 23 767
e 23 208
e 23 240
e 24 497
e 24 778
e 24 278
e 24 790
e 24 307
e 24 336
e 26 464
e 26 195
e 26 520
e 26 104
e 27 407
e 27 164
e 27 231
e 27 417
e 27 455
e 27 497
e 27 265
e 28 847
e 28 228
e 28 194
e 28 73
e 29 291
e 29 73
e 29 358
e 29 572
e 30 384
e 30 626
e 30 640
e 30 526
e 30 336
e 30 354
e 31 963
e 31 211
e 31 650
e 31 431
e 31 335
e 31 90
e 31 63
e 32 526
e 32 522
e 32 831
e 33 144
e 33 51
e 33 538
e 33 760
e 33 810
e 33 447
e 33 643
e 33 358
e 34 474
e 34 812
e 34 406
e 34 348
e 34 244
e 34 833
e 34 947
e 34 179
e 35 549
e 35 478
e 35 402
e 35 307
e 36 313
e 36 888
e 36 120
e 36 760
e 36 169
e 36 146
e 36 766
e 37 973
e 37 314
e 37 668
e 37 761
e 38 932
e 38 143
e 38 475
e 38 387
e 38 586
e 38 269
e 38 939
e 39 890
e 39 189
e 39 69
e 39 53
e 39 336
e 40 735
e 40 939
e 40 188
e 42 183
e 42 224
e 42 951
e 42 376
e 42 811
e 42 662
e 43 672
e 43 524
e 43 439
e 44 973
e 44 765
e 44 202
e 44 561
e 45 983
e 45 174
e 45 996
e 45 115
e 45 259
e 45 78
e 45 244
e 45 143
e 45 442
e 46 698
e 46 677
e 46 849
e 46 867
e 47 301
e 47 647
e 47 941
e 48 220
e 48 237
e 48 686
e 48 706
e 48 190
e 49 75
e 49 444
e 49 988
e 49 293
e 49 323
e 49 124
e 49 660
e 50 167
e 50 994
e 50 627
e 50 753
e 50 172
e 51 339
e 51 901
e 51 202
e 51 151
e 51 53
e 51 807
e 51 382
e 52 755
e 52 846
e 52 315
e 52 880
e 52 937
e 52 142
e 53 962
e 54 511
e 54 836
e 54 550
e 54 740
e 55 152
e 55 832
e 55 892
e 56 740
e 56 778
e 56 977
e 56 585
e 56 205
e 57 464
e 57 94
e 57 349
e 58 790
e 58 116
e 58 317
e 58 190
e 58 801
e 58 531
e 59 937
e 59 172
e 59 341
e 59 395
e 61 480
e 61 875
e 61 969
e 61 977
e 62 895
e 62 390
e 62 280
e 62 838
e 63 706
e 63 820
e 64 519
e 64 804
e 64 462
e 64 245
e 64 143
e 67 714
e 67 463
e 67 894
e 67 912
e 67 416
e 68 74
e 68 237
e 68 333
e 68 298
e 69 444
e 69 603
e 70 123
e 70 400
e 70 180
e 70 962
e 71 818
e 71 987
e 71 267
e 71 291
e 72 523
e 72 643
e 72 460
e 72 960
e 73 86
e 73 512
e 74 681
e 74 447
e 74 649
e 75 238
e 75 929
e 75 385
e 75 627
e 76 534
e 76 563
e 76 450
e 76 566
e 76 832
e 77 180
e 77 652
e 77 476
e 78 512
e 78 626
e 79 808
e 79 652
e 79 217
e 80 759
e 80 896
e 80 502
e 80 698
e 81 519
e 81 988
e 81 757
e 81 157
e 81 785
e 81 955
e 82 498
e 82 564
e 82 316
e 82 164
e 82 468
e 83 675
e 83 508
e 83 536
e 83 286
e 84 867
e 84 666
e 84 538
e 84 163
e 84 979
e 84 950
e 85 995
e 85 714
e 85 424
e 85 175
e 85 874
e 86 678
e 86 638
e 86 683
e 86 686
e 86 691
e 86 178
e 87 576
e 87 668
e 87 504
e 88 967
e 88 558
e 88 668
e 89 371
e 89 717
e 89 650
e 89 351
e 89 472
e 90 861
e 90 883
e 90 941
e 91 654
e 91 420
e 92 133
e 92 116
e 92 926
e 92 733
e 92 569
e 93 556
e 93 126
e 93 220
e 93 206
e 94 358
e 94 351
e 97 398
e 97 183
e 97 391
e 99 848
e 99 389
e 99 511
e 99 229
e 100 223
e 100 978
e 100 542
e 101 806
e 101 748
e 101 992
e 101 807
e 101 851
e 101 451
e 103 406
e 103 684
e 103 531
e 104 817
e 104 668
e 104 694
e 104 414
e 108 363
e 108 805
e 108 456
e 108 889
e 108 925
e 109 867
e 109 711
e 109 646
e 109 251
e 109 716
e 109 746
e 109 150
e 109 569
e 111 922
e 111 934
e 111 715
e 111 224
e 111 504
e 111 798
e 113 117
e 113 538
e 113 181
e 113 162
e 113 335
e 114 358
e 114 460
e 114 915
e 114 301
e 114 757
e 114 501
e 114 646
e 114 174
e 114 496
e 114 711
e 114 901
e 114 370
e 115 142
e 115 134
e 115 835
e 115 775
e 115 937
e 115 759
e 115 618
e 116 468
e 116 874
e 117 336
e 117 373
e 120 204
e 120 135
e 120 569
e 120 402
e 122 629
e 122 513
e 122 549
e 123 439
e 123 326
e 123 328
e 124 785
e 124 488
e 124 262
e 125 255
e 125 388
e 125 771
e 126 266
e 126 438
e 126 842
e 126 800
e 126 681
e 126 623
e 127 520
e 127 392
e 127 391
e 128 765
e 128 836
e 128 379
e 128 637
e 128 553
e 130 764
e 130 471
e 130 830
e 130 741
e 130 877
e 131 768
e 131 343
e 131 987
e 131 669
e 131 633
e 131 771
e 131 606
e 133 535
e 133 313
e 133 798
e 133 760
e 134 690
e 134 831
e 135 461
e 135 958
e 135 400
e 136 922
e 136 416
e 136 838
e 136 664
e 137 751
e 137 654
e 137 710
e 139 601
e 139 231
e 139 151
e 139 423
e 139 201
e 140 522
e 140 702
e 140 654
e 140 309
e 140 737
e 140 364
e 140 603
e 140 558
e 140 442
e 140 780
e 141 815
e 141 534
e 141 459
e 141 798
e 142 658
e 142 700
e 142 668
e 143 764
e 143 260
e 143 375
e 144 637
e 144 376
e 144 836
e 144 850
e 144 494
e 144 771
e 144 665
e 144 624
e 146 381
e 146 231
e 146 175
e 148 324
e 148 615
e 148 174
e 148 552
e 149 434
e 149 714
e 149 441
e 150 686
e 150 464
e 150 725
e 151 769
e 151 926
e 151 567
e 151 579
e 151 231
e 152 646
e 152 267
e 152 278
e 152 207
e 152 379
e 152 242
e 153 302
e 153 804
e 153 384
e 153 674
e 156 568
e 156 231
e 156 649
e 157 897
e 157 497
e 157 882
e 157 492
e 157 573
e 157 798
e 158 282
e 158 316
e 158 483
e 159 559
e 159 180
e 159 385
e 159 943
e 160 727
e 160 477
e 160 742
e 160 539
e 160 471
e 160 718
e 161 513
e 161 858
e 161 171
e 161 766
e 161 569
e 161 323
e 162 487
e 162 259
e 162 380
e 162 760
e 162 497
e 163 515
e 163 319
e 164 973
e 164 361
e 164 312
e 164 531
e 165 747
e 165 934
e 165 316
e 165 313
e 165 343
e 167 218
e 167 644
e 167 637
e 169 279
e 169 395
e 169 580
e 169 382
e 171 613
e 171 892
e 172 267
e 172 390
e 172 308
e 172 190
e 173 887
e 173 684
e 173 390
e 174 643
e 174 344
e 174 617
e 174 549
e 174 223
e 174 873
e 174 313
e 175 527
e 177 517
e 177 468
e 177 428
e 177 413
e 178 342
e 178 535
e 179 773
e 179 556
e 179 700
e 179 592
e 179 600
e 180 398
e 180 734
e 180 735
e 180 462
e 180 532
e 180 850
e 181 782
e 181 601
e 181 594
e 183 845
e 183 700
e 183 335
e 188 500
e 188 968
e 188 698
e 188 415
e 189 527
e 189 649
e 189 253
e 190 678
e 190 950
e 190 273
e 190 859
e 192 201
e 192 624
e 192 517
e 192 431
e 192 461
e 193 672
e 193 901
e 193 195
e 193 458
e 194 209
e 194 313
e 194 434
e 194 257
e 195 528
e 195 583
e 195 288
e 195 607
e 196 969
e 196 596
e 196 301
e 196 836
e 197 891
e 197 667
e 197 878
e 197 286
e 198 415
e 198 463
e 198 648
e 198 712
e 198 481
e 198 955
e 198 647
e 199 812
e 199 553
e 199 879
e 199 858
e 201 609
e 201 767
e 201 282
e 201 519
e 202 937
e 203 508
e 203 716
e 203 729
e 204 351
e 204 330
e 204 910
e 204 272
e 204 710
e 205 711
e 205 996
e 205 502
e 206 505
e 206 992
e 206 397
e 206 905
e 207 995
e 207 442
e 207 244
e 207 461
e 208 240
e 208 215
e 208 575
e 208 223
e 208 435
e 209 231
e 209 260
e 210 949
e 210 461
e 210 654
e 210 670
e 210 580
e 211 594
e 211 218
e 211 507
e 214 785
e 214 295
e 214 363
e 214 486
e 214 623
e 215 348
e 215 771
e 215 742
e 215 500
e 215 292
e 216 700
e 216 349
e 216 686
e 216 665
e 217 437
e 217 413
e 217 433
e 218 612
e 220 828
e 220 668
e 220 480
e 220 748
e 220 951
e 220 766
e 221 373
e 221 951
e 221 911
e 221 482
e 223 299
e 224 524
e 225 785
e 225 380
e 225 275
e 227 622
e 227 277
e 227 567
e 227 586
e 228 837
e 228 607
e 228 849
e 228 600
e 228 410
e 228 296
e 228 435
e 228 255
e 228 463
e 229 701
e 229 238
e 229 996
e 229 569
e 231 980
e 231 591
e 231 721
e 232 766
e 232 900
e 232 887
e 232 342
e 233 309
e 233 238
e 233 977
e 234 986
e 234 561
e 234 674
e 237 976
e 238 850
e 238 495
e 238 618
e 240 414
e 240 709
e 240 488
e 240 889
e 242 476
e 242 385
e 242 288
e 244 988
e 244 395
e 244 763
e 244 349
e 245 318
e 245 589
e 245 554
e 245 278
e 245 947
e 245 667
e 246 463
e 246 535
e 246 908
e 247 580
e 247 938
e 247 343
e 251 556
e 251 797
e 251 536
e 251 274
e 251 323
e 251 480
e 253 852
e 253 845
e 254 573
e 254 316
e 254 329
e 254 825
e 254 566
e 255 737
e 255 853
e 255 901
e 255 854
e 255 672
e 255 496
e 256 626
e 256 484
e 256 399
e 257 891
e 257 911
e 258 315
e 258 981
e 258 629
e 259 292
e 259 354
e 259 535
e 259 467
e 260 336
e 260 340
e 262 779
e 262 316
e 264 418
e 264 320
e 264 458
e 265 996
e 265 727
e 265 552
e 265 280
e 265 487
e 265 402
e 266 438
e 266 635
e 267 354
e 267 660
e 267 916
e 267 453
e 269 367
e 269 589
e 269 351
e 271 592
e 271 688
e 271 304
e 271 476
e 271 923
e 271 402
e 272 983
e 272 776
e 272 593
e 272 711
e 272 341
e 273 375
e 273 856
e 273 684
e 274 550
e 274 447
e 275 718
e 275 294
e 277 672
e 277 538
e 277 522
e 277 424
e 277 467
e 278 850
e 279 636
e 279 674
e 279 534
e 279 324
e 279 695
e 280 409
e 280 645
e 280 718
e 280 990
e 282 339
e 282 721
e 282 380
e 282 304
e 283 459
e 283 558
e 283 442
e 286 597
e 288 430
e 288 630
e 288 775
e 288 981
e 289 896
e 289 681
e 289 820
e 289 457
e 290 637
e 290 681
e 290 428
e 290 600
e 290 387
e 291 535
e 291 883
e 291 559
e 292 354
e 292 865
e 292 764
e 293 611
e 293 318
e 294 373
e 295 711
e 295 957
e 296 577
e 296 464
e 296 329
e 296 375
e 297 796
e 297 851
e 297 934
e 298 778
e 298 303
e 298 324
e 298 552
e 298 751
e 298 412
e 299 821
e 299 857
e 299 830
e 301 433
e 301 528
e 301 757
e 302 498
e 302 603
e 302 690
e 302 701
e 302 478
e 302 466
e 302 720
e 303 854
e 303 475
e 304 710
e 304 639
e 306 734
e 306 649
e 307 774
e 307 423
e 307 652
e 308 912
e 308 590
e 309 553
e 311 957
e 311 831
e 311 797
e 311 951
e 312 778
e 312 377
e 313 666
e 313 314
e 313 923
e 314 702
e 315 805
e 315 599
e 315 726
e 316 858
e 316 509
e 316 583
e 317 771
e 317 420
e 317 986
e 317 739
e 318 776
e 318 450
e 318 716
e 318 993
e 319 382
e 319 901
e 319 883
e 320 845
e 320 639
e 323 929
e 323 434
e 323 514
e 323 992
e 324 399
e 326 880
e 326 570
e 326 934
e 327 381
e 327 949
e 327 660
e 328 696
e 328 342
e 329 475
e 330 819
e 330 774
e 332 516
e 332 497
e 332 479
e 332 941
e 332 888
e 333 892
e 333 949
e 334 957
e 334 800
e 335 433
e 335 467
e 336 627
e 336 901
e 336 471
e 338 795
e 338 753
e 338 541
e 338 425
e 338 564
e 339 908
e 339 389
e 339 364
e 339 840
e 339 824
e 339 810
e 339 820
e 340 974
e 340 678
e 340 771
e 340 746
e 340 351
e 341 966
e 341 925
e 341 354
e 342 368
e 342 358
e 342 565
e 342 882
e 343 713
e 344 511
e 344 463
e 344 600
e 344 658
e 345 1000
e 345 974
e 345 764
e 345 481
e 345 700
e 347 801
e 347 412
e 347 896
e 347 442
e 348 983
e 348 414
e 348 739
e 348 723
e 348 610
e 349 831
e 349 753
e 349 434
e 349 542
e 351 831
e 353 583
e 353 366
e 353 810
e 354 846
e 354 411
e 358 832
e 358 728
e 358 367
e 361 577
e 361 651
e 361 839
e 362 612
e 362 871
e 362 859
e 362 977
e 363 819
e 363 988
e 364 782
e 364 637
e 364 428
e 366 528
e 366 856
e 366 403
e 366 862
e 366 385
e 367 491
e 367 862
e 368 570
e 368 839
e 368 385
e 368 550
e 368 569
e 369 495
e 369 759
e 369 901
e 370 755
e 371 744
e 371 640
e 371 395
e 371 584
e 371 583
e 371 679
e 371 467
e 373 519
e 374 939
e 374 833
e 374 839
e 375 813
e 375 438
e 376 938
e 377 531
e 377 980
e 378 806
e 378 937
e 378 648
e 379 541
e 380 573
e 380 877
e 381 575
e 382 520
e 383 994
e 383 931
e 383 740
e 383 783
e 384 392
e 385 612
e 385 595
e 385 534
e 386 410
e 386 953
e 386 541
e 387 540
e 387 484
e 388 576
e 388 563
e 388 951
e 388 879
e 388 664
e 389 597
e 389 600
e 389 859
e 390 779
e 390 795
e 390 523
e 391 515
e 391 864
e 392 770
e 395 486
e 397 728
e 397 945
e 397 678
e 397 663
e 398 993
e 399 891
e 399 573
e 399 477
e 400 492
e 400 969
e 400 597
e 400 580
e 401 444
e 401 860
e 401 871
e 402 579
e 403 710
e 403 837
e 403 413
e 403 852
e 406 963
e 406 912
e 406 496
e 406 765
e 406 552
e 406 418
e 406 417
e 406 903
e 407 979
e 407 938
e 409 739
e 409 760
e 410 527
e 411 987
e 411 576
e 411 938
e 411 414
e 411 865
e 411 567
e 412 496
e 412 957
e 412 996
e 413 577
e 413 896
e 413 752
e 413 482
e 414 419
e 414 593
e 414 486
e 414 662
e 414 539
e 415 991
e 416 492
e 416 993
e 417 978
e 417 759
e 418 666
e 419 990
e 419 980
e 420 559
e 421 747
e 421 601
e 421 735
e 421 884
e 423 718
e 424 813
e 424 721
e 425 595
e 425 865
e 428 773
e 428 808
e 430 464
e 430 573
e 430 823
e 430 670
e 430 729
e 431 884
e 433 531
e 433 953
e 434 916
e 435 771
e 435 451
e 435 527
e 436 675
e 436 636
e 436 991
e 436 535
e 437 461
e 437 903
e 437 846
e 437 579
e 438 586
e 438 687
e 439 902
e 441 526
e 441 717
e 441 592
e 444 756
e 444 636
e 444 594
e 447 631
e 447 872
e 450 512
e 450 728
e 451 863
e 451 833
e 451 1000
e 453 668
e 453 993
e 454 875
e 454 765
e 454 606
e 455 637
e 455 531
e 456 600
e 456 563
e 456 934
e 457 715
e 457 854
e 458 851
e 458 916
e 458 573
e 458 910
e 459 769
e 459 572
e 460 887
e 460 882
e 462 568
e 462 569
e 463 472
e 463 821
e 463 694
e 463 703
e 464 886
e 465 719
e 465 642
e 465 957
e 465 784
e 466 726
e 466 595
e 466 873
e 466 833
e 467 926
e 467 589
e 468 847
e 468 759
e 468 926
e 470 696
e 470 504
e 470 583
e 470 649
e 471 502
e 471 508
e 471 476
e 472 785
e 472 943
e 473 499
e 473 475
e 473 548
e 473 949
e 473 648
e 474 929
e 474 758
e 474 786
e 474 668
e 475 556
e 476 819
e 476 583
e 477 953
e 478 874
e 479 585
e 479 710
e 479 867
e 480 873
e 480 534
e 481 758
e 481 912
e 482 540
e 482 495
e 483 988
e 483 908
e 483 797
e 484 645
e 486 809
e 487 506
e 488 577
e 491 883
e 491 515
e 492 929
e 494 564
e 494 815
e 495 764
e 495 812
e 495 839
e 496 541
e 496 744
e 497 567
e 497 597
e 497 710
e 498 963
e 498 864
e 498 548
e 498 651
e 498 594
e 499 896
e 499 761
e 499 563
e 500 761
e 500 908
e 500 986
e 501 729
e 501 937
e 504 901
e 504 615
e 505 835
e 505 971
e 505 962
e 505 636
e 505 668
e 506 874
e 506 622
e 506 958
e 506 626
e 507 872
e 507 860
e 507 788
e 508 615
e 508 895
e 508 712
e 509 868
e 509 991
e 509 623
e 510 813
e 510 819
e 510 667
e 510 992
e 511 618
e 511 559
e 511 542
e 512 726
e 512 691
e 512 865
e 513 854
e 513 820
e 513 565
e 516 774
e 516 980
e 517 642
e 517 719
e 520 798
e 520 751
e 520 804
e 520 617
e 522 973
e 523 622
e 523 905
e 523 937
e 523 867
e 524 580
e 524 538
e 524 695
e 526 937
e 527 722
e 530 824
e 530 976
e 530 538
e 531 570
e 531 968
e 531 753
e 532 564
e 532 915
e 534 974
e 534 804
e 534 769
e 535 974
e 536 790
e 536 715
e 538 822
e 539 977
e 539 921
e 540 776
e 541 837
e 541 743
e 542 565
e 544 926
e 544 615
e 544 859
e 544 747
e 545 799
e 545 629
e 545 605
e 548 767
e 548 953
e 548 890
e 548 875
e 549 586
e 549 658
e 549 889
e 550 686
e 550 838
e 552 650
e 553 900
e 553 635
e 554 727
e 554 758
e 559 987
e 559 685
e 559 756
e 559 671
e 560 645
e 560 812
e 560 758
e 560 784
e 561 955
e 561 656
e 563 888
e 563 751
e 563 638
e 564 773
e 565 712
e 565 615
e 565 981
e 566 763
e 566 734
e 567 650
e 568 660
e 568 896
e 568 690
e 569 586
e 569 801
e 569 741
e 570 794
e 570 864
e 570 801
e 571 960
e 571 725
e 571 670
e 572 652
e 572 912
e 572 786
e 575 932
e 576 763
e 576 677
e 576 856
e 576 871
e 576 955
e 579 839
e 579 661
e 580 751
e 583 627
e 583 630
e 583 751
e 583 957
e 584 752
e 584 840
e 585 983
e 585 723
e 585 860
e 586 847
e 589 760
e 589 796
e 590 679
e 590 950
e 591 863
e 591 601
e 591 900
e 591 596
e 592 967
e 592 740
e 592 760
e 593 760
e 594 943
e 594 670
e 595 681
e 596 894
e 596 723
e 596 854
e 596 624
e 597 782
e 597 752
e 599 990
e 600 722
e 601 986
e 605 642
e 605 714
e 606 691
e 606 833
e 606 788
e 606 866
e 606 768
e 606 635
e 606 775
e 607 669
e 607 765
e 609 962
e 609 740
e 609 735
e 610 890
e 610 683
e 610 877
e 611 612
e 611 879
e 611 864
e 611 695
e 612 797
e 613 887
e 613 671
e 615 773
e 615 842
e 617 858
e 617 746
e 618 851
e 618 912
e 618 811
e 622 770
e 622 828
e 623 890
e 624 822
e 624 878
e 626 833
e 627 681
e 629 915
e 629 800
e 629 872
e 629 752
e 630 915
e 630 703
e 630 879
e 630 757
e 630 884
e 631 866
e 631 926
e 633 742
e 633 770
e 634 685
e 634 821
e 634 648
e 634 931
e 636 666
e 636 901
e 636 877
e 637 897
e 637 990
e 637 978
e 637 991
e 638 951
e 638 896
e 639 801
e 639 716
e 640 926
e 642 792
e 642 660
e 644 955
e 644 824
e 645 670
e 645 784
e 645 923
e 646 809
e 647 832
e 647 825
e 648 902
e 648 654
e 649 716
e 651 865
e 656 878
e 656 886
e 656 779
e 658 977
e 658 765
e 658 957
e 660 860
e 661 687
e 661 846
e 662 918
e 663 807
e 663 798
e 664 932
e 665 847
e 666 963
e 667 721
e 669 857
e 670 679
e 674 821
e 675 921
e 675 720
e 677 839
e 677 887
e 678 918
e 679 943
e 681 710
e 683 862
e 683 811
e 685 963
e 687 734
e 688 857
e 688 971
e 690 767
e 690 758
e 691 837
e 694 728
e 694 835
e 694 846
e 695 878
e 695 888
e 696 804
e 696 967
e 698 788
e 698 947
e 701 995
e 702 973
e 702 995
e 703 802
e 703 945
e 706 905
e 709 830
e 709 823
e 710 722
e 710 890
e 710 895
e 711 802
e 711 847
e 711 774
e 711 945
e 712 981
e 713 739
e 713 799
e 716 866
e 717 856
e 717 818
e 718 840
e 719 727
e 719 937
e 719 794
e 720 910
e 720 817
e 721 804
e 722 905
e 725 790
e 726 746
e 726 916
e 726 824
e 726 822
e 728 853
e 733 967
e 733 877
e 734 880
e 735 794
e 737 760
e 739 778
e 740 894
e 741 801
e 741 845
e 743 941
e 743 974
e 743 868
e 744 996
e 744 988
e 744 860
e 744 795
e 746 783
e 748 863
e 750 768
e 750 756
e 750 892
e 751 957
e 753 795
e 755 969
e 755 852
e 757 810
e 757 861
e 758 923
e 759 867
e 760 925
e 761 872
e 761 784
e 764 780
e 765 941
e 766 987
e 767 775
e 767 856
e 768 979
e 768 971
e 769 875
e 770 842
e 776 823
e 776 949
e 779 992
e 780 995
e 783 797
e 784 825
e 786 856
e 788 828
e 792 953
e 792 809
e 794 877
e 796 915
e 797 995
e 797 903
e 797 911
e 799 932
e 802 891
e 802 884
e 805 846
e 806 973
e 806 812
e 807 825
e 808 818
e 809 902
e 810 939
e 811 886
e 811 880
e 811 985
e 813 966
e 815 839
e 817 901
e 818 835
e 819 851
e 820 923
e 821 951
e 822 922
e 822 913
e 823 905
e 824 895
e 824 985
e 824 830
e 828 955
e 831 967
e 838 955
e 842 915
e 845 938
e 848 934
e 848 913
e 853 976
e 854 903
e 859 939
e 860 979
e 861 1000
e 863 921
e 863 960
e 864 921
e 868 945
e 878 938
e 886 992
e 897 994
e 901 978
e 902 923
e 912 979
e 912 921
e 913 980
e 915 958
e 916 991
e 918 987
e 921 978
e 921 979
e 929 981
e 937 967
e 938 981
e 943 992
e 945 985
e 947 968
e 949 966
e 951 979
e 973 988
e 993 996
